0 84 
1 85 
2 84 
3 86 
4 84 
5 82 
6 80 
7 77 
8 76 
9 76 
10 76 
11 74 
12 71 
13 67 
14 66 
15 66 
16 67 
17 64 
18 60 
19 59 
20 56 
21 53 
22 52 
23 51 
24 51 
25 48 
26 45 
27 44 
28 41 
29 38 
30 37 
31 37 
32 35 
33 38 
34 36 
35 35 
36 33 
37 29 
38 28 
39 27 
40 25 
41 20 
42 20 
43 20 
44 20 
45 17 
46 13 
47 16 
48 15 
49 16 
50 13 
51 9 
52 12 
53 7 
54 6 
55 5 
56 4 
57 2 
58 0 
59 0 

